feasible solution found by trivial heuristic after 1.7 seconds, objective value -4.247743e+08
presolving:
(round 1, fast)       150871 del vars, 150871 del conss, 0 add conss, 0 chg bounds, 0 chg sides, 0 chg coeffs, 0 upgd conss, 0 impls, 4912 clqs
   (4.9s) running MILP presolver
   (5.5s) MILP presolver (2 rounds): 0 aggregations, 2821 fixings, 0 bound changes
(round 2, medium)     153692 del vars, 161425 del conss, 7733 add conss, 0 chg bounds, 0 chg sides, 0 chg coeffs, 0 upgd conss, 0 impls, 4912 clqs
(round 3, exhaustive) 153692 del vars, 161689 del conss, 7733 add conss, 0 chg bounds, 0 chg sides, 0 chg coeffs, 0 upgd conss, 0 impls, 7469 clqs
(round 4, exhaustive) 153692 del vars, 161689 del conss, 7733 add conss, 0 chg bounds, 0 chg sides, 0 chg coeffs, 7469 upgd conss, 0 impls, 7469 clqs
   (6.0s) probing: 51/129 (39.5%) - 0 fixings, 0 aggregations, 0 implications, 0 bound changes
   (6.0s) probing aborted: 50/50 successive totally useless probings
   (6.2s) symmetry computation started: requiring (bin +, int -, cont +), (fixed: bin -, int +, cont -)
   (6.2s) no symmetry present
presolving (5 rounds: 5 fast, 4 medium, 3 exhaustive):
 153692 deleted vars, 161689 deleted constraints, 7733 added constraints, 0 tightened bounds, 0 added holes, 0 changed sides, 0 changed coefficients
 0 implications, 7469 cliques
presolved problem has 129 variables (129 bin, 0 int, 0 impl, 0 cont) and 7469 constraints
   7469 constraints of type <setppc>
Presolving Time: 4.84
transformed 1/1 original solutions to the transformed problem space

 time | node  | left  |LP iter|LP it/n|mem/heur|mdpt |vars |cons |rows |cuts |sepa|confs|strbr|  dualbound   | primalbound  |  gap   | compl. 
p 8.0s|     1 |     0 |     0 |     - |  clique|   0 | 129 |7469 |7469 |   0 |  0 |   0 |   0 |-4.228370e+08 |-4.245672e+08 |   0.41%| unknown
  8.5s|     1 |     0 |   960 |     - |   509M |   0 | 129 |7469 |7469 |   0 |  0 |   0 |   0 |-4.243978e+08 |-4.245672e+08 |   0.04%| unknown
  8.7s|     1 |     0 |  1127 |     - |   510M |   0 | 129 |7469 |7470 |   1 |  1 |   0 |   0 |-4.243992e+08 |-4.245672e+08 |   0.04%| unknown
  8.9s|     1 |     0 |  1318 |     - |   512M |   0 | 129 |7469 |7471 |   2 |  2 |   0 |   0 |-4.244000e+08 |-4.245672e+08 |   0.04%| unknown
  9.0s|     1 |     0 |  1475 |     - |   515M |   0 | 129 |7469 |7472 |   3 |  3 |   0 |   0 |-4.244003e+08 |-4.245672e+08 |   0.04%| unknown
  9.1s|     1 |     0 |  1597 |     - |   516M |   0 | 129 |7469 |7473 |   4 |  4 |   0 |   0 |-4.244005e+08 |-4.245672e+08 |   0.04%| unknown
  9.3s|     1 |     0 |  1773 |     - |   518M |   0 | 129 |7469 |7474 |   5 |  5 |   0 |   0 |-4.244006e+08 |-4.245672e+08 |   0.04%| unknown
  9.4s|     1 |     0 |  1913 |     - |   519M |   0 | 129 |7469 |7475 |   6 |  6 |   0 |   0 |-4.244007e+08 |-4.245672e+08 |   0.04%| unknown
  9.6s|     1 |     0 |  2010 |     - |   520M |   0 | 129 |7469 |7476 |   7 |  7 |   0 |   0 |-4.244007e+08 |-4.245672e+08 |   0.04%| unknown
  9.8s|     1 |     0 |  2120 |     - |   522M |   0 | 129 |7469 |7477 |   8 |  8 |   0 |   0 |-4.244007e+08 |-4.245672e+08 |   0.04%| unknown
 10.1s|     1 |     0 |  2240 |     - |   523M |   0 | 129 |7469 |7478 |   9 |  9 |   0 |   0 |-4.244008e+08 |-4.245672e+08 |   0.04%| unknown
 10.3s|     1 |     0 |  2396 |     - |   526M |   0 | 129 |7469 |7479 |  10 | 10 |   0 |   0 |-4.244008e+08 |-4.245672e+08 |   0.04%| unknown
 10.4s|     1 |     0 |  2442 |     - |   526M |   0 | 129 |7469 |7480 |  11 | 11 |   0 |   0 |-4.244008e+08 |-4.245672e+08 |   0.04%| unknown
 10.5s|     1 |     0 |  2494 |     - |   527M |   0 | 129 |7469 |7481 |  12 | 12 |   0 |   0 |-4.244009e+08 |-4.245672e+08 |   0.04%| unknown
 10.7s|     1 |     0 |  2554 |     - |   528M |   0 | 129 |7469 |7482 |  13 | 13 |   0 |   0 |-4.244009e+08 |-4.245672e+08 |   0.04%| unknown
 time | node  | left  |LP iter|LP it/n|mem/heur|mdpt |vars |cons |rows |cuts |sepa|confs|strbr|  dualbound   | primalbound  |  gap   | compl. 
d11.2s|     1 |     0 |  3418 |     - |farkasdi|   0 | 129 |7469 |7482 |   0 | 15 |   0 |   0 |-4.244009e+08 |-4.245062e+08 |   0.02%| unknown
 11.2s|     1 |     0 |  3418 |     - |   529M |   0 | 129 |7469 |7482 |  13 | 15 |   0 |   0 |-4.244009e+08 |-4.245062e+08 |   0.02%| unknown
 11.3s|     1 |     0 |  3441 |     - |   529M |   0 | 129 |7469 |7483 |  14 | 16 |   0 |   0 |-4.244009e+08 |-4.245062e+08 |   0.02%| unknown
 11.4s|     1 |     0 |  3467 |     - |   529M |   0 | 129 |7469 |7484 |  15 | 17 |   0 |   0 |-4.244009e+08 |-4.245062e+08 |   0.02%| unknown
 17.6s|     1 |     2 |  3467 |     - |   529M |   0 | 129 |7469 |7484 |  15 | 17 |   0 |  20 |-4.244058e+08 |-4.245062e+08 |   0.02%| unknown
*21.8s|     3 |     2 |  4389 | 902.5 |strongbr|   2 | 129 |7469 |7481 |  15 |  2 |   0 |  57 |-4.244058e+08 |-4.245017e+08 |   0.02%| unknown
 72.7s|   100 |     3 | 18778 | 163.6 |   536M |  23 | 129 |6216 |7490 |  41 |  1 |  55 | 313 |-4.244743e+08 |-4.245017e+08 |   0.01%|  88.97%

SCIP Status        : problem is solved [optimal solution found]
Solving Time (sec) : 73.32
Solving Nodes      : 119
Primal Bound       : -4.24501660766120e+08 (133 solutions)
Dual Bound         : -4.24501660766120e+08
Gap                : 0.00 %
Solve Status: optimal
Solve Time: 76.72 seconds
